n=1000;
m=20;
ciudades = [|86, 744, |408, 655, |271, 466, |0, 196, |631, 358, |217, 154, |512, 240, |223, 539, |488, 931, |519, 307, |6, 484, |134, 962, |320, 235, |968, 827, |683, 385, |482, 552, |335, 867, |296, 762, |583, 614, |740, 614, |]
